
Gurobi 12.0.0 (win64, gurobi_cl) logging started Tue Nov 26 17:45:19 2024

Set parameter Username
Set parameter LicenseID to value 2591787
Set parameter LogFile to value "gurobi.log"
Using license file C:\Users\archi\gurobi.lic
Academic license - for non-commercial use only - expires 2025-11-27

Gurobi Optimizer version 12.0.0 build v12.0.0rc1 (win64 - Windows 11.0 (22631.2))
Copyright (c) 2024, Gurobi Optimization, LLC

Read LP format model from file C:\Users\archi\AppData\Local\Temp\568a3502262a4483b0a7a8bc41b10d4f-pulp.lp
Reading time = 0.55 seconds
OBJ: 1596 rows, 159600 columns, 638001 nonzeros

Using Gurobi shared library C:\gurobi1200\win64\bin\gurobi120.dll

CPU model: Intel(R) Core(TM) i5-10210U CPU @ 1.60GHz, instruction set [SSE2|AVX|AVX2]
Thread count: 4 physical cores, 8 logical processors, using up to 8 threads

Optimize a model with 1596 rows, 159600 columns and 638001 nonzeros
Model fingerprint: 0xe6dd815e
Variable types: 0 continuous, 159600 integer (159600 binary)
Coefficient statistics:
  Matrix range     [1e+00, 5e+04]
  Objective range  [1e+00, 1e+00]
  Bounds range     [1e+00, 1e+00]
  RHS range        [1e+00, 1e+00]
Found heuristic solution: objective 295.0000000
Presolve time: 1.36s
Presolved: 1596 rows, 159600 columns, 638001 nonzeros
Variable types: 0 continuous, 159600 integer (159600 binary)

Use crossover to convert LP symmetric solution to basic solution...

Root relaxation: objective 1.470263e+02, 159132 iterations, 1.62 seconds (0.74 work units)
Total elapsed time = 7.36s (DegenMoves)
Total elapsed time = 10.39s (DegenMoves)

    Nodes    |    Current Node    |     Objective Bounds      |     Work
 Expl Unexpl |  Obj  Depth IntInf | Incumbent    BestBd   Gap | It/Node Time

     0     0  147.02629    0  397  295.00000  147.02629  50.2%     -   14s
H    0     0                     222.0000000  147.02629  33.8%     -   15s
H    0     0                     220.0000000  147.02629  33.2%     -   15s
H    0     0                     216.0000000  147.02629  31.9%     -   15s
H    0     0                     204.0000000  147.02629  27.9%     -   19s
H    0     0                     192.0000000  147.02629  23.4%     -   19s
H    0     0                     186.0000000  147.02629  21.0%     -   21s
H    0     0                     185.0000000  147.02629  20.5%     -   30s
H    0     0                     176.0000000  147.02629  16.5%     -   40s
H    0     0                     174.0000000  147.02629  15.5%     -   40s
     0     0  147.02629    0  549  174.00000  147.02629  15.5%     -   44s
H    0     0                     173.0000000  147.02629  15.0%     -   49s
H    0     0                     172.0000000  147.02629  14.5%     -   55s
H    0     0                     171.0000000  147.02629  14.0%     -   55s
H    0     0                     167.0000000  147.02629  12.0%     -   66s
H    0     0                     166.0000000  147.02629  11.4%     -   91s
H    0     0                     163.0000000  147.02629  9.80%     -   96s
     0     0  147.02629    0  566  163.00000  147.02629  9.80%     -   96s
H    0     0                     159.0000000  147.02629  7.53%     -  134s
     0     0  147.02629    0  376  159.00000  147.02629  7.53%     -  135s
     0     0  147.02629    0  495  159.00000  147.02629  7.53%     -  140s
     0     0  147.02629    0  407  159.00000  147.02629  7.53%     -  223s
     0     0  148.35413    0  405  159.00000  148.35413  6.70%     -  271s
     0     0  148.35616    0  388  159.00000  148.35616  6.69%     -  276s
H    0     0                     158.0000000  148.35616  6.10%     -  282s
H    0     0                     157.0000000  148.35616  5.51%     -  283s
H    0     0                     156.0000000  148.35616  4.90%     -  305s
H    0     0                     155.0000000  148.35616  4.29%     -  305s
     0     0  148.35616    0  445  155.00000  148.35616  4.29%     -  311s
     0     0  148.35630    0  515  155.00000  148.35630  4.29%     -  357s
     0     0  148.35630    0  566  155.00000  148.35630  4.29%     -  363s
     0     0  148.35630    0  565  155.00000  148.35630  4.29%     -  364s
     0     2  148.35638    0  564  155.00000  148.35638  4.29%     -  369s
     1     2 infeasible    1       155.00000  148.35638  4.29%  2090  373s
     3     2  148.35638    2  585  155.00000  148.35638  4.29%  2423  381s
     5     2 infeasible    3       155.00000  148.35638  4.29%  1988  385s
     7     2  149.00000    4  407  155.00000  148.35638  4.29%  2617  400s
    19    21  149.00000   10  382  155.00000  149.00000  3.87%  3616  407s

Cutting planes:
  Cover: 898
  Clique: 271
  MIR: 358
  StrongCG: 322
  Zero half: 1
  RLT: 3
  Relax-and-lift: 5

Explored 28 nodes (436713 simplex iterations) in 407.33 seconds (215.78 work units)
Thread count was 8 (of 8 available processors)

Solution count 10: 155 156 157 ... 172

Solve interrupted
Best objective 1.550000000000e+02, best bound 1.490000000000e+02, gap 3.8710%

Wrote result file 'C:\Users\archi\AppData\Local\Temp\568a3502262a4483b0a7a8bc41b10d4f-pulp.sol'


Gurobi 12.0.0 (win64, gurobi_cl) logging started Tue Nov 26 17:52:54 2024

Set parameter Username
Set parameter LicenseID to value 2591787
Set parameter LogFile to value "gurobi.log"
Using license file C:\Users\archi\gurobi.lic
Academic license - for non-commercial use only - expires 2025-11-27

Gurobi Optimizer version 12.0.0 build v12.0.0rc1 (win64 - Windows 11.0 (22631.2))
Copyright (c) 2024, Gurobi Optimization, LLC

Read LP format model from file C:\Users\archi\AppData\Local\Temp\222c009b6f92409ebd7fbb171af064b9-pulp.lp
Reading time = 0.30 seconds
OBJ: 1192 rows, 89102 columns, 356110 nonzeros

Using Gurobi shared library C:\gurobi1200\win64\bin\gurobi120.dll

CPU model: Intel(R) Core(TM) i5-10210U CPU @ 1.60GHz, instruction set [SSE2|AVX|AVX2]
Thread count: 4 physical cores, 8 logical processors, using up to 8 threads

Optimize a model with 1192 rows, 89102 columns and 356110 nonzeros
Model fingerprint: 0xd9d47207
Variable types: 0 continuous, 89102 integer (89102 binary)
Coefficient statistics:
  Matrix range     [1e+00, 5e+04]
  Objective range  [1e+00, 1e+00]
  Bounds range     [1e+00, 1e+00]
  RHS range        [1e+00, 1e+00]
Found heuristic solution: objective 218.0000000
Presolve time: 0.62s
Presolved: 1192 rows, 89102 columns, 356110 nonzeros
Variable types: 0 continuous, 89102 integer (89102 binary)

Use crossover to convert LP symmetric solution to basic solution...

Root relaxation: objective 1.080402e+02, 88752 iterations, 0.65 seconds (0.40 work units)

    Nodes    |    Current Node    |     Objective Bounds      |     Work
 Expl Unexpl |  Obj  Depth IntInf | Incumbent    BestBd   Gap | It/Node Time

     0     0  108.04022    0  284  218.00000  108.04022  50.4%     -    5s
H    0     0                     168.0000000  108.04022  35.7%     -    5s
H    0     0                     166.0000000  108.04022  34.9%     -    5s
H    0     0                     164.0000000  108.04022  34.1%     -    5s
H    0     0                     163.0000000  108.04022  33.7%     -    5s
H    0     0                     162.0000000  108.04022  33.3%     -    8s
H    0     0                     149.0000000  108.04022  27.5%     -    8s
H    0     0                     145.0000000  108.04022  25.5%     -    8s
H    0     0                     144.0000000  108.04022  25.0%     -    9s
H    0     0                     142.0000000  108.04022  23.9%     -    9s
H    0     0                     141.0000000  108.04022  23.4%     -    9s
H    0     0                     140.0000000  108.04022  22.8%     -   10s
H    0     0                     139.0000000  108.04022  22.3%     -   10s
H    0     0                     137.0000000  108.04022  21.1%     -   11s
H    0     0                     136.0000000  108.04022  20.6%     -   11s
H    0     0                     131.0000000  108.04022  17.5%     -   18s
H    0     0                     129.0000000  108.04022  16.2%     -   18s
H    0     0                     128.0000000  108.04022  15.6%     -   19s
H    0     0                     127.0000000  108.04022  14.9%     -   20s
H    0     0                     125.0000000  108.04022  13.6%     -   20s
     0     0  108.04022    0  427  125.00000  108.04022  13.6%     -   20s
H    0     0                     124.0000000  108.04022  12.9%     -   21s
H    0     0                     123.0000000  108.04022  12.2%     -   35s
H    0     0                     122.0000000  108.04022  11.4%     -   37s
H    0     0                     121.0000000  108.04022  10.7%     -   37s
     0     0  108.04022    0  449  121.00000  108.04022  10.7%     -   37s
     0     0  108.04022    0  307  121.00000  108.04022  10.7%     -   53s
     0     0  108.04022    0  419  121.00000  108.04022  10.7%     -   55s
     0     0  108.04022    0  305  121.00000  108.04022  10.7%     -   87s
     0     0  109.36807    0  320  121.00000  109.36807  9.61%     -  101s
     0     0  109.37005    0  303  121.00000  109.37005  9.61%     -  104s
H    0     0                     119.0000000  109.37005  8.09%     -  104s
H    0     0                     118.0000000  109.37005  7.31%     -  105s
H    0     0                     117.0000000  109.37005  6.52%     -  109s
     0     0  109.37021    0  340  117.00000  109.37021  6.52%     -  112s
H    0     0                     116.0000000  109.37021  5.72%     -  114s
H    0     0                     115.0000000  109.37021  4.90%     -  119s
     0     0  109.37025    0  417  115.00000  109.37025  4.90%     -  123s
     0     0  109.37027    0  445  115.00000  109.37027  4.90%     -  126s
     0     0  109.37027    0  440  115.00000  109.37027  4.90%     -  127s
     0     2  109.37041    0  437  115.00000  109.37041  4.90%     -  129s
     1     2 infeasible    1       115.00000  109.37041  4.90%  1806  131s
     7     4  110.00000    4  295  115.00000  110.00000  4.35%  1986  135s
    25    36  110.00000    9  261  115.00000  110.00000  4.35%  1038  142s
H   26    36                     114.0000000  110.00000  3.51%   998  142s
    41   173  110.00000   11  241  114.00000  110.00000  3.51%   703  151s
   178   426  110.00000   52  193  114.00000  110.00000  3.51%   273  166s
   431   584  110.00000  106  195  114.00000  110.00000  3.51%   201  193s
   589   921  110.00000  149  183  114.00000  110.00000  3.51%   190  210s
   926  1157  110.00000  231  201  114.00000  110.00000  3.51%   173  231s
  1162  1161  110.00000  325  204  114.00000  110.00000  3.51%   188  250s
  1166  1208  110.00000  326  199  114.00000  110.00000  3.51%   190  267s
  1213  1409  110.00000  340  198  114.00000  110.00000  3.51%   191  287s
  1414  1566  110.00000  447  199  114.00000  110.00000  3.51%   210  306s
  1571  1869  110.00000  535  199  114.00000  110.00000  3.51%   230  323s
H 1878  1990                     113.0000000  110.00000  2.65%   226  342s
  1999  2238  110.00000  664  180  113.00000  110.00000  2.65%   225  356s
  2247  2471  110.00000  724  193  113.00000  110.00000  2.65%   226  373s
  2480  2688  110.00000  797  164  113.00000  110.00000  2.65%   231  386s
  2697  2895  110.00000  873  184  113.00000  110.00000  2.65%   235  400s
  2904  3072  110.00000  931  185  113.00000  110.00000  2.65%   240  414s
  3081  3299  110.00000  978  184  113.00000  110.00000  2.65%   246  428s
  3314  3567  110.00000 1019  180  113.00000  110.00000  2.65%   247  443s
  3592  3749  110.00000 1053  185  113.00000  110.00000  2.65%   244  457s
  3804  3856  111.00000 1110  143  113.00000  110.00000  2.65%   247  472s
  3914  3857  110.00000  387  320  113.00000  110.00000  2.65%   258  488s
  3916  3858  111.00000  726  278  113.00000  110.00000  2.65%   258  559s
  3917  3859  110.00000  492  347  113.00000  110.00000  2.65%   258  568s
  3918  3860  110.00000  132  402  113.00000  110.00000  2.65%   258  573s
  3919  3860  112.00000 1134  413  113.00000  110.00000  2.65%   258  576s
  3921  3862  110.00000  140  529  113.00000  110.00000  2.65%   258  583s
  3922  3862  111.00000  350  575  113.00000  110.00000  2.65%   258  587s
  3923  3863  110.00000  277  614  113.00000  110.00000  2.65%   258  593s
  3924  3864  110.00000  299  637  113.00000  110.00000  2.65%   257  600s
  3925  3864  110.00000    7  681  113.00000  110.00000  2.65%   257  606s
  3926  3865  110.00000  195  701  113.00000  110.00000  2.65%   257  614s
  3927  3866  111.00000  403  732  113.00000  110.00000  2.65%   257  624s
  3928  3866  110.00000  404  781  113.00000  110.00000  2.65%   257  634s
  3929  3867  111.00000  681  746  113.00000  110.00000  2.65%   257  644s
  3930  3868  110.00000  488  771  113.00000  110.00000  2.65%   257  652s
  3931  3868  110.00000  916  764  113.00000  110.00000  2.65%   257  659s
  3932  3869  110.00000  900  765  113.00000  110.00000  2.65%   257  668s
  3933  3870  110.00000  409  773  113.00000  110.00000  2.65%   257  684s
  3934  3870  110.00000  874  788  113.00000  110.00000  2.65%   257  697s
  3935  3871  110.00000   30  807  113.00000  110.00000  2.65%   257  712s
  3936  3872  111.00000  642  836  113.00000  110.00000  2.65%   257  723s
  3937  3872  110.00000   64  829  113.00000  110.00000  2.65%   257  736s
  3938  3873  110.00000   94  893  113.00000  110.00000  2.65%   257  752s
H 3938  3678                     112.0000000  110.00000  1.79%   257  761s
  3940  3679  110.00000  298  919  112.00000  110.00000  1.79%   256  774s
  3941  3680  110.00000  260  945  112.00000  110.00000  1.79%   256  785s
  3943  3681  112.00000 1288  939  112.00000  110.00000  1.79%   256  863s
  3944  3684  110.00000   14  892  112.00000  110.00000  1.79%   307 1077s
  3945  3685  110.00000   15  891  112.00000  110.00000  1.79%   311 1094s
  3948  3688  110.00000   16  881  112.00000  110.00000  1.79%   316 1105s
  3952  3705  110.00000   17  866  112.00000  110.00000  1.79%   341 1127s
  3971  3707  110.00000   20  858  112.00000  110.00000  1.79%   416 1149s
  3979  3712 infeasible   21       112.00000  110.00000  1.79%   431 1195s
  3991  3714  110.00000   22  809  112.00000  110.00000  1.79%   510 1208s
  3997  3714 infeasible   23       112.00000  110.00000  1.79%   515 1229s
  4001  3720  110.00000   23  781  112.00000  110.00000  1.79%   523 1242s
  4008  3728  110.00000   24  762  112.00000  110.00000  1.79%   542 1250s
  4018  3734  110.00000   25  737  112.00000  110.00000  1.79%   574 1263s
  4028  3741 infeasible   26       112.00000  110.00000  1.79%   601 1275s
  4040  3744  110.00000   26  357  112.00000  110.00000  1.79%   632 1296s
  4047  3754  110.00000   27  669  112.00000  110.00000  1.79%   635 1303s
  4059  3764  110.00000   30  506  112.00000  110.00000  1.79%   646 1311s
  4073  3773  110.00000   33  433  112.00000  110.00000  1.79%   664 1332s
  4089  3787  110.00000   37  425  112.00000  110.00000  1.79%   678 1352s
  4112  3804  110.00000   41  441  112.00000  110.00000  1.79%   695 1361s
  4139  3822  110.47694   45  299  112.00000  110.00000  1.79%   708 1372s
  4166  3837  110.47694   50  283  112.00000  110.00000  1.79%   728 1381s
  4190  3833  110.47694   54  232  112.00000  110.00000  1.79%   755 1389s
  4194  3851  110.00000   55  341  112.00000  110.00000  1.79%   762 1400s
  4213  3870  110.00000   59  371  112.00000  110.00000  1.79%   777 1411s
  4239  3884  110.47694   66  263  112.00000  110.00000  1.79%   799 1423s
  4261  3908  110.47694   71  263  112.00000  110.00000  1.79%   831 1443s
  4293  3919  110.00000   79  312  112.00000  110.00000  1.79%   872 1462s
  4314  3933  110.00000   81  318  112.00000  110.00000  1.79%   910 1487s
  4335  3959  110.00000   84  315  112.00000  110.00000  1.79%   952 1508s
  4368  3981  110.00000   91  330  112.00000  110.00000  1.79%   982 1525s
  4401  4023  110.00000  100  318  112.00000  110.00000  1.79%  1009 1543s
  4458  4064  110.00000  111  301  112.00000  110.00000  1.79%  1023 1560s
  4518  4098  110.00000  121  300  112.00000  110.00000  1.79%  1033 1577s
  4572  4124  110.00000  130  319  112.00000  110.00000  1.79%  1049 1601s
  4618  4172  110.00000  131  311  112.00000  110.00000  1.79%  1080 1621s
  4688  4221  110.00000  141  313  112.00000  110.00000  1.79%  1095 1639s
  4764  4256  110.00000  147  317  112.00000  110.00000  1.79%  1108 1676s
  4828  4297  110.00000  150  328  112.00000  110.00000  1.79%  1147 1715s
  4895  4330  110.00000  151  318  112.00000  110.00000  1.79%  1171 1755s
  4958  4350  110.00000  157  325  112.00000  110.00000  1.79%  1201 1794s
  5005  4356  110.00000  163  387  112.00000  110.00000  1.79%  1241 1831s
  5035  4395  110.00000  164  397  112.00000  110.00000  1.79%  1274 1877s
  5094  4411  110.00000  169  393  112.00000  110.00000  1.79%  1300 1915s
  5137  4423  110.00000  172  407  112.00000  110.00000  1.79%  1333 1953s
  5174  4430  110.00000  176  402  112.00000  110.00000  1.79%  1383 1987s
  5201  4444  110.00000  177  402  112.00000  110.00000  1.79%  1408 2023s
  5232  4465  110.00000  181  389  112.00000  110.00000  1.79%  1434 2057s
  5273  4494  110.00000  183  388  112.00000  110.00000  1.79%  1474 2109s
  5328  4499  110.08007  187  697  112.00000  110.00000  1.79%  1535 2153s
  5367  4550  111.00000  190  596  112.00000  110.00000  1.79%  1563 2192s
  5453  4524  111.00000  209  436  112.00000  110.00000  1.79%  1573 2230s
  5458  4525  111.00000  209  472  112.00000  110.00000  1.79%  1576 2281s
  5463  4536  111.00000  210  419  112.00000  110.00000  1.79%  1577 2392s
  5489  4532 infeasible  210       112.00000  110.00000  1.79%  1595 2436s
  5522  4528  111.00000  211  402  112.00000  110.00000  1.79%  1617 2506s
  5559  4520  111.00000  212  392  112.00000  110.00000  1.79%  1637 2562s
  5601  4507  111.00000  212  428  112.00000  110.00000  1.79%  1659 2634s
  5634  4497  111.00000  213  400  112.00000  110.00000  1.79%  1679 2695s
  5673  4510  111.00000  213  409  112.00000  110.00000  1.79%  1711 2768s
  5737  4536  111.00000  214  390  112.00000  110.00000  1.79%  1725 2839s
  5825  4573 infeasible  214       112.00000  110.00000  1.79%  1742 2900s
  5897  4626  111.00000  215  422  112.00000  110.00000  1.79%  1758 2980s
  5982  4638  111.00000  219  395  112.00000  110.00000  1.79%  1799 3041s
  6040  4687  111.00000  234  420  112.00000  110.00000  1.79%  1813 3136s
  6119  4704  111.00000  242  377  112.00000  110.00000  1.79%  1868 3207s
  6178  4723  111.00000  253  393  112.00000  110.00000  1.79%  1917 3293s
  6241  4748  111.00000  266  372  112.00000  110.00000  1.79%  1967 3369s
  6307  4814  111.00000  275  368  112.00000  110.00000  1.79%  2023 3465s
  6409  4854  111.00000  289  385  112.00000  110.00000  1.79%  2059 3554s
  6513  5037  110.00000   47  378  112.00000  110.00000  1.79%  2103 3633s
  6736  5212  110.00000  176  291  112.00000  110.00000  1.79%  2105 3714s
  6992  5297  110.00000  315  299  112.00000  110.00000  1.79%  2109 81453s

Cutting planes:
  Gomory: 11
  Cover: 458
  Clique: 291
  MIR: 251
  StrongCG: 306
  Flow cover: 43
  Zero half: 10
  RLT: 1
  Relax-and-lift: 40

Explored 7164 nodes (15220177 simplex iterations) in 81454.38 seconds (3093.72 work units)
Thread count was 8 (of 8 available processors)

Solution count 10: 112 113 114 ... 122

Solve interrupted
Best objective 1.120000000000e+02, best bound 1.100000000000e+02, gap 1.7857%

Wrote result file 'C:\Users\archi\AppData\Local\Temp\222c009b6f92409ebd7fbb171af064b9-pulp.sol'

